NAME : portcgen-29-30
COMMENT : portcgen N=29, seed=30
TYPE : TSP
DIMENSION : 29
EDGE_WEIGHT_TYPE : EUC_2D
NODE_COORD_SECTION
1 221566 231980
2 -351363 -332474
3 85276 -299307
4 -55443 -411850
5 391979 337837
6 267185 -109353
7 -173445 128545
8 163609 29699
9 77880 -30638
10 -948 -310650
11 -12175 89655
12 -217265 538929
13 -67084 -129066
14 182198 141188
15 -37611 -209594
16 -297659 201532
17 -91263 -88988
18 -18267 225942
19 -92273 -21988
20 161506 -239978
21 -249835 48937
22 105217 2272
23 -297841 -6218
24 -52608 357465
25 218113 58416
26 121440 -153942
27 195723 -92542
28 147841 -66785
29 107909 -388222
